1 -1 -2 0
1 -1 3 0
1 4 1 0
1 5 6 0
1 -5 2 0
1 5 -7 0
1 6 -8 0
1 6 2 0
1 -6 -3 0
1 -2 -9 0
1 -2 -4 0
1 2 10 0
1 -2 11 0
1 2 -12 0
1 2 -5 0
1 -3 13 0
1 3 -14 0
1 -3 1 0
1 15 -4 0
1 -15 -16 0
1 -15 17 0
1 -17 -18 0
1 -17 -19 0
1 17 4 0
1 -17 -15 0
1 -17 10 0
1 17 -20 0
1 -17 -1 0
1 -12 -21 0
1 12 8 0
1 12 9 0
1 -12 7 0
1 9 -2 0
1 9 -12 0
1 -11 -21 0
1 11 8 0
1 11 -22 0
1 -11 -23 0
1 -22 21 0
1 -22 8 0
1 22 -18 0
1 22 2 0
1 22 7 0
1 -22 11 0
1 -22 -24 0
1 22 25 0
1 26 -27 0
1 26 -9 0
1 -26 -28 0
1 -8 -9 0
1 8 29 0
1 -8 -11 0
1 8 12 0
1 -8 5 0
1 7 -30 0
1 -7 22 0
1 7 -9 0
1 7 -31 0
1 7 11 0
1 7 5 0
1 7 32 0
1 -21 -30 0
1 -21 -29 0
1 21 31 0
1 -21 10 0
1 -21 11 0
1 21 -12 0
1 33 -34 0
1 33 8 0
1 -33 -35 0
1 -33 26 0
1 34 8 0
1 -34 -23 0
1 -34 -35 0
1 -34 24 0
1 -34 -25 0
1 -28 -8 0
1 27 -8 0
1 27 -24 0
1 25 22 0
1 25 35 0
1 25 28 0
1 25 11 0
1 25 36 0
1 -35 -37 0
1 -35 33 0
1 -35 11 0
1 35 25 0
1 -35 36 0
1 24 -27 0
1 -24 22 0
1 -24 -28 0
1 23 -34 0
1 -23 22 0
1 -23 38 0
1 23 -37 0
1 23 -29 0
1 23 28 0
1 23 36 0
1 -23 -32 0
1 39 40 0
1 39 41 0
1 42 -40 0
1 43 -44 0
1 -43 45 0
1 -46 -45 0
1 46 47 0
1 -46 -6 0
1 -46 40 0
1 46 -48 0
1 49 18 0
1 49 -19 0
1 -49 -42 0
1 49 -50 0
1 49 20 0
1 51 52 0
1 51 53 0
1 51 -20 0
1 51 -39 0
1 44 -54 0
1 -44 46 0
1 44 -55 0
1 -44 39 0
1 -40 -52 0
1 40 56 0
1 -40 -42 0
1 40 -55 0
1 20 45 0
1 -20 -15 0
1 20 51 0
1 -20 -57 0
1 -20 58 0
1 -19 49 0
1 -19 9 0
1 -19 47 0
1 -19 -56 0
1 19 -57 0
1 19 20 0
1 -19 -17 0
1 50 -49 0
1 50 -18 0
1 50 45 0
1 50 59 0
1 -50 -60 0
1 50 15 0
1 -50 -51 0
1 -18 -48 0
1 18 49 0
1 -18 -22 0
1 -18 45 0
1 -18 61 0
1 -18 60 0
1 -18 -62 0
1 47 63 0
1 47 48 0
1 -47 14 0
1 47 -18 0
1 47 -64 0
1 47 -50 0
1 -47 -20 0
1 -48 -63 0
1 48 -14 0
1 -48 -46 0
1 48 20 0
1 45 65 0
1 -45 66 0
1 45 -19 0
1 45 67 0
1 45 -20 0
1 45 -43 0
1 57 65 0
1 -57 52 0
1 -57 -19 0
1 -57 68 0
1 57 -67 0
1 57 69 0
1 -57 -43 0
1 -10 -21 0
1 -10 47 0
1 -10 60 0
1 10 -15 0
1 -10 -67 0
1 10 70 0
1 10 17 0
1 10 -3 0
1 -14 60 0
1 -14 -70 0
1 -14 -3 0
1 31 -21 0
1 31 -59 0
1 -31 16 0
1 -31 28 0
1 31 -68 0
1 -30 21 0
1 30 -60 0
1 30 71 0
1 30 7 0
1 30 -70 0
1 30 72 0
1 -60 30 0
1 60 14 0
1 60 73 0
1 -60 10 0
1 -70 18 0
1 -70 60 0
1 70 29 0
1 70 10 0
1 -70 74 0
1 -59 30 0
1 -59 75 0
1 59 -31 0
1 59 -10 0
1 -59 -50 0
1 -59 -62 0
1 59 -76 0
1 62 -14 0
1 -62 18 0
1 62 -64 0
1 -62 -10 0
1 -62 50 0
1 62 77 0
1 -29 -8 0
1 -29 23 0
1 29 60 0
1 29 16 0
1 29 -26 0
1 29 -70 0
1 29 72 0
1 -32 8 0
1 32 60 0
1 32 16 0
1 -32 -29 0
1 -78 79 0
1 -78 -80 0
1 78 72 0
1 -80 13 0
1 -80 23 0
1 -80 -78 0
1 -80 72 0
1 80 -76 0
1 -71 13 0
1 -71 -37 0
1 -71 -29 0
1 -71 -81 0
1 -71 -36 0
1 -71 -32 0
1 -13 82 0
1 -13 37 0
1 13 78 0
1 13 29 0
1 -13 71 0
1 -13 -31 0
1 -13 -81 0
1 13 32 0
1 -16 -75 0
1 -16 -78 0
1 -16 -15 0
1 -16 -29 0
1 -16 -81 0
1 -16 -83 0
1 16 74 0
1 72 84 0
1 -72 75 0
1 -72 -17 0
1 72 -83 0
1 -72 -80 0
1 -72 -85 0
1 -37 -13 0
1 -37 86 0
1 37 23 0
1 37 -35 0
1 -37 87 0
1 37 24 0
1 36 23 0
1 -36 35 0
1 36 -37 0
1 -36 -71 0
1 36 -79 0
1 -36 -25 0
1 -88 -89 0
1 88 38 0
1 -88 -90 0
1 88 -84 0
1 88 -87 0
1 88 -79 0
1 90 -13 0
1 -90 -89 0
1 -90 79 0
1 -90 83 0
1 -79 -89 0
1 -79 -88 0
1 79 -37 0
1 79 91 0
1 -79 -36 0
1 -89 8 0
1 -89 -92 0
1 89 -93 0
1 89 -90 0
1 -89 -36 0
1 89 -80 0
1 -87 -94 0
1 -87 -82 0
1 87 37 0
1 87 -78 0
1 87 -95 0
1 87 80 0
1 -86 -21 0
1 86 -96 0
1 86 94 0
1 -86 -97 0
1 86 -78 0
1 98 -99 0
1 -98 93 0
1 -98 -100 0
1 -93 38 0
1 93 -99 0
1 93 79 0
1 -93 -81 0
1 -101 -89 0
1 101 97 0
1 101 91 0
1 101 -102 0
1 -101 100 0
1 -91 -89 0
1 -91 -103 0
1 91 -102 0
1 -100 98 0
1 100 99 0
1 100 -104 0
1 100 91 0
1 -100 105 0
1 -99 -35 0
1 99 98 0
1 99 88 0
1 99 -104 0
1 102 101 0
1 -102 98 0
1 38 -106 0
1 38 23 0
1 38 -102 0
1 -41 107 0
1 41 -108 0
1 -41 39 0
1 109 107 0
1 -109 -110 0
1 -111 107 0
1 111 112 0
1 111 110 0
1 -111 113 0
1 112 -107 0
1 112 114 0
1 -112 -110 0
1 -112 -115 0
1 -112 111 0
1 108 -61 0
1 -108 -107 0
1 -108 56 0
1 -108 112 0
1 -108 -55 0
1 108 116 0
1 108 58 0
1 -108 41 0
1 -107 55 0
1 107 58 0
1 -110 109 0
1 -117 -118 0
1 -117 -112 0
1 117 -111 0
1 58 -107 0
1 -58 40 0
1 -58 20 0
1 -58 113 0
1 56 -19 0
1 56 119 0
1 -56 108 0
1 56 -58 0
1 -56 113 0
1 -55 -119 0
1 -55 120 0
1 -55 -121 0
1 55 -113 0
1 55 122 0
1 -61 -123 0
1 61 -44 0
1 61 18 0
1 -61 -107 0
1 -61 -114 0
1 -61 -119 0
1 -61 -40 0
1 61 55 0
1 -113 52 0
1 113 61 0
1 113 112 0
1 113 -68 0
1 -113 -67 0
1 -113 111 0
1 119 -124 0
1 119 65 0
1 -119 -52 0
1 119 61 0
1 -119 -56 0
1 -119 -112 0
1 119 -125 0
1 -119 126 0
1 119 -68 0
1 119 67 0
1 -119 113 0
1 119 -111 0
1 -115 -61 0
1 -115 114 0
1 -115 -55 0
1 115 -127 0
1 114 -56 0
1 114 115 0
1 114 58 0
1 114 111 0
1 67 -123 0
1 -67 -44 0
1 -67 -52 0
1 67 -45 0
1 67 119 0
1 -67 -51 0
1 -67 -57 0
1 -67 113 0
1 67 122 0
1 -52 123 0
1 -52 49 0
1 52 120 0
1 -52 57 0
1 -68 -31 0
1 -68 -113 0
1 -65 128 0
1 -65 45 0
1 65 119 0
1 65 120 0
1 65 53 0
1 123 63 0
1 -123 61 0
1 -121 -61 0
1 121 -64 0
1 121 -68 0
1 -121 55 0
1 121 76 0
1 122 -124 0
1 122 -65 0
1 122 129 0
1 122 -61 0
1 122 -120 0
1 -122 -130 0
1 122 -131 0
1 -122 126 0
1 -122 -67 0
1 122 55 0
1 -122 132 0
1 -120 124 0
1 -120 133 0
1 120 68 0
1 120 55 0
1 -64 -128 0
1 64 -45 0
1 -64 126 0
1 64 53 0
1 63 123 0
1 63 -124 0
1 -63 -57 0
1 -63 -32 0
1 -134 -128 0
1 134 -53 0
1 -134 69 0
1 134 -135 0
1 -134 -62 0
1 76 123 0
1 -76 54 0
1 76 -136 0
1 76 -121 0
1 76 137 0
1 76 -69 0
1 76 -135 0
1 128 -63 0
1 128 -65 0
1 -128 49 0
1 128 138 0
1 128 134 0
1 -128 139 0
1 -128 -83 0
1 53 -65 0
1 53 -140 0
1 -53 134 0
1 -53 64 0
1 -53 -68 0
1 -53 76 0
1 54 -63 0
1 -54 -137 0
1 54 -139 0
1 54 141 0
1 -54 -142 0
1 -54 -76 0
1 -137 63 0
1 137 -143 0
1 137 130 0
1 137 -134 0
1 -137 40 0
1 75 -128 0
1 75 136 0
1 75 -37 0
1 -75 130 0
1 75 135 0
1 75 -62 0
1 74 128 0
1 -74 -66 0
1 -74 60 0
1 -74 75 0
1 74 16 0
1 74 69 0
1 -74 -135 0
1 74 62 0
1 74 -36 0
1 84 128 0
1 84 77 0
1 84 -136 0
1 84 -88 0
1 84 -144 0
1 84 -73 0
1 84 135 0
1 83 128 0
1 83 66 0
1 83 136 0
1 83 -53 0
1 83 -90 0
1 83 77 0
1 -83 -141 0
1 -136 135 0
1 -136 -145 0
1 -136 -97 0
1 -136 -47 0
1 136 146 0
1 136 134 0
1 136 -83 0
1 135 -97 0
1 -135 -82 0
1 135 -136 0
1 -135 84 0
1 135 147 0
1 135 103 0
1 135 81 0
1 135 74 0
1 -66 148 0
1 -66 84 0
1 -66 -147 0
1 66 -139 0
1 69 149 0
1 69 84 0
1 -69 -150 0
1 69 139 0
1 69 -74 0
1 69 76 0
1 82 77 0
1 -82 -151 0
1 -81 86 0
1 81 144 0
1 -81 -73 0
1 81 16 0
1 81 -93 0
1 81 -139 0
1 -81 77 0
1 81 -151 0
1 97 152 0
1 -97 86 0
1 -97 -101 0
1 -97 -144 0
1 -97 -135 0
1 97 -151 0
1 -103 97 0
1 -103 153 0
1 103 154 0
1 -103 87 0
1 -103 91 0
1 103 -150 0
1 -103 135 0
1 73 -155 0
1 -73 -106 0
1 73 94 0
1 -73 82 0
1 -73 -92 0
1 73 151 0
1 151 97 0
1 -151 -84 0
1 151 73 0
1 -151 -156 0
1 -151 -83 0
1 151 70 0
1 -151 157 0
1 -144 -97 0
1 -144 -77 0
1 -144 -84 0
1 -144 -158 0
1 144 83 0
1 -77 -145 0
1 -77 -144 0
1 77 -159 0
1 77 -103 0
1 77 -81 0
1 -77 -83 0
1 -77 -160 0
1 -94 152 0
1 94 -86 0
1 94 89 0
1 -94 73 0
1 94 85 0
1 -92 -152 0
1 92 86 0
1 92 94 0
1 92 -153 0
1 -92 -151 0
1 106 -161 0
1 -106 -96 0
1 -106 -102 0
1 -106 151 0
1 162 -152 0
1 162 163 0
1 -154 -164 0
1 -154 -152 0
1 154 97 0
1 -154 -71 0
1 154 103 0
1 -152 164 0
1 152 94 0
1 152 165 0
1 -152 166 0
1 152 -104 0
1 -152 154 0
1 -152 -92 0
1 -153 -106 0
1 153 167 0
1 153 -16 0
1 -153 -156 0
1 153 168 0
1 -85 97 0
1 -85 169 0
1 -164 -96 0
1 164 99 0
1 -164 -170 0
1 104 152 0
1 -104 163 0
1 104 100 0
1 171 -96 0
1 -171 -172 0
1 -171 -166 0
1 -171 170 0
1 171 -168 0
1 166 -96 0
1 166 -163 0
1 166 -167 0
1 -166 -105 0
1 166 171 0
1 -170 -173 0
1 170 166 0
1 170 171 0
1 -163 -164 0
1 -163 106 0
1 -163 89 0
1 -163 174 0
1 -163 173 0
1 -163 -104 0
1 -163 -162 0
1 163 175 0
1 -163 171 0
1 -95 106 0
1 95 -96 0
1 -95 166 0
1 95 176 0
1 -96 106 0
1 -96 -86 0
1 96 -176 0
1 -96 -171 0
1 -175 163 0
1 175 -172 0
1 -175 -173 0
1 173 172 0
1 -173 -177 0
1 -173 -165 0
1 173 170 0
1 -173 175 0
1 178 -163 0
1 178 170 0
1 -178 -176 0
1 -174 177 0
1 174 170 0
1 -174 -178 0
1 105 -174 0
1 105 -177 0
1 105 -173 0
1 105 -100 0
1 177 -166 0
1 177 171 0
1 179 -172 0
1 179 -166 0
1 179 -178 0
1 179 -175 0
1 -172 174 0
1 172 166 0
1 172 -171 0
1 -126 124 0
1 -126 -118 0
1 126 -119 0
1 -126 -64 0
1 126 180 0
1 126 113 0
1 124 -114 0
1 124 126 0
1 -124 116 0
1 -124 -122 0
1 131 118 0
1 -131 -125 0
1 -131 180 0
1 -131 181 0
1 -132 125 0
1 -132 -131 0
1 -132 -116 0
1 -132 127 0
1 132 -181 0
1 -132 -76 0
1 -116 124 0
1 116 -182 0
1 -116 -143 0
1 -116 -142 0
1 -182 124 0
1 182 107 0
1 -182 130 0
1 182 116 0
1 182 -141 0
1 182 -132 0
1 180 -110 0
1 -180 -183 0
1 -180 -132 0
1 -118 132 0
1 130 -123 0
1 130 182 0
1 -130 -120 0
1 130 -121 0
1 130 -137 0
1 130 -116 0
1 -130 181 0
1 -130 122 0
1 142 -123 0
1 142 -182 0
1 142 -125 0
1 142 -120 0
1 -142 116 0
1 142 -127 0
1 -143 125 0
1 -143 -184 0
1 143 127 0
1 -143 -129 0
1 -141 185 0
1 -141 -182 0
1 141 -186 0
1 141 -125 0
1 -141 133 0
1 -141 137 0
1 -181 -187 0
1 -181 -125 0
1 -181 -130 0
1 -181 -188 0
1 181 -139 0
1 -181 113 0
1 -125 -189 0
1 125 -130 0
1 125 131 0
1 -125 188 0
1 -125 141 0
1 -125 181 0
1 125 -142 0
1 -125 132 0
1 127 143 0
1 127 -130 0
1 -127 -131 0
1 127 -132 0
1 -186 -143 0
1 186 190 0
1 -186 -131 0
1 186 -127 0
1 -186 141 0
1 -186 -142 0
1 186 -132 0
1 -140 -125 0
1 -140 -184 0
1 140 53 0
1 139 -185 0
1 -139 -54 0
1 -139 140 0
1 -139 125 0
1 -191 -192 0
1 -191 125 0
1 191 -129 0
1 -150 -185 0
1 -150 192 0
1 -150 -66 0
1 150 -133 0
1 -150 184 0
1 -185 123 0
1 -185 193 0
1 185 191 0
1 185 -143 0
1 185 194 0
1 -185 -150 0
1 -184 -185 0
1 -184 193 0
1 -184 161 0
1 184 -141 0
1 -129 195 0
1 -129 -187 0
1 129 191 0
1 -129 -140 0
1 129 133 0
1 -129 188 0
1 -129 122 0
1 -133 -191 0
1 -133 -196 0
1 133 194 0
1 133 -150 0
1 -133 139 0
1 133 -141 0
1 133 129 0
1 145 -94 0
1 145 -66 0
1 147 -145 0
1 147 -138 0
1 147 -144 0
1 147 92 0
1 147 -197 0
1 -147 77 0
1 -161 -106 0
1 161 -195 0
1 -161 148 0
1 -161 146 0
1 -161 -184 0
1 161 159 0
1 161 -198 0
1 161 -77 0
1 159 -185 0
1 159 161 0
1 159 -138 0
1 159 -144 0
1 159 -162 0
1 159 -199 0
1 -159 149 0
1 159 -200 0
1 159 -77 0
1 -138 145 0
1 138 -128 0
1 -138 -201 0
1 -138 156 0
1 138 -150 0
1 -138 168 0
1 198 -155 0
1 -198 161 0
1 -198 201 0
1 198 53 0
1 198 -150 0
1 -192 -202 0
1 192 -193 0
1 -192 -161 0
1 192 201 0
1 192 -159 0
1 -192 197 0
1 -192 -147 0
1 -192 -150 0
1 -197 -192 0
1 197 201 0
1 197 -147 0
1 197 150 0
1 -155 164 0
1 -155 146 0
1 -155 -144 0
1 155 73 0
1 155 153 0
1 156 148 0
1 156 -153 0
1 -156 77 0
1 -156 -151 0
1 -168 148 0
1 168 153 0
1 -168 198 0
1 -168 149 0
1 -168 -160 0
1 -168 85 0
1 167 138 0
1 167 148 0
1 167 -146 0
1 167 -168 0
1 167 -203 0
1 167 -149 0
1 -167 -160 0
1 -167 157 0
1 146 -161 0
1 -146 -136 0
1 -146 -165 0
1 146 -167 0
1 -146 176 0
1 -146 -169 0
1 200 161 0
1 200 204 0
1 -200 146 0
1 200 167 0
1 200 168 0
1 -148 161 0
1 -148 66 0
1 -148 -201 0
1 148 156 0
1 149 -159 0
1 -169 152 0
1 169 96 0
1 -169 146 0
1 169 -153 0
1 -169 -95 0
1 -165 158 0
1 165 154 0
1 -165 157 0
1 165 -200 0
1 176 96 0
1 -176 -205 0
1 -176 95 0
1 -176 -160 0
1 176 -206 0
1 -204 160 0
1 -204 95 0
1 -205 -165 0
1 205 -157 0
1 157 204 0
1 -157 205 0
1 157 -176 0
1 157 -151 0
1 -158 -168 0
1 160 -77 0
1 160 176 0
1 187 -207 0
1 -187 -125 0
1 187 183 0
1 -187 -208 0
1 187 127 0
1 -187 -129 0
1 -188 -207 0
1 -188 209 0
1 -188 186 0
1 188 125 0
1 188 183 0
1 -188 -208 0
1 188 129 0
1 195 207 0
1 -195 -190 0
1 195 -199 0
1 -195 210 0
1 195 211 0
1 -195 -129 0
1 199 -190 0
1 199 -189 0
1 -199 133 0
1 -199 208 0
1 208 -195 0
1 208 -203 0
1 -208 194 0
1 -208 116 0
1 209 -187 0
1 209 -208 0
1 -183 195 0
1 -183 207 0
1 183 -199 0
1 207 199 0
1 207 -188 0
1 -193 -185 0
1 -193 -190 0
1 -193 184 0
1 -193 -210 0
1 193 -211 0
1 193 129 0
1 194 185 0
1 194 193 0
1 194 -209 0
1 -194 -190 0
1 -194 189 0
1 194 -156 0
1 194 184 0
1 -194 -129 0
1 202 212 0
1 -202 -213 0
1 202 209 0
1 202 196 0
1 202 -208 0
1 -203 -192 0
1 -203 -209 0
1 -203 196 0
1 -203 208 0
1 203 210 0
1 -211 -195 0
1 211 -189 0
1 211 -203 0
1 -211 -194 0
1 211 -206 0
1 -189 202 0
1 -189 -193 0
1 189 -195 0
1 189 -201 0
1 -189 -194 0
1 189 -206 0
1 189 -211 0
1 -210 -202 0
1 -210 -195 0
1 -210 194 0
1 -210 127 0
1 -190 186 0
1 -201 -192 0
1 201 -165 0
1 201 189 0
1 -201 196 0
1 201 198 0
1 201 -149 0
1 206 212 0
1 -206 -213 0
1 206 148 0
1 -206 189 0
1 206 196 0
1 -206 149 0
1 206 -211 0
1 -214 -212 0
1 -214 -213 0
1 214 -148 0
1 -214 -204 0
1 -214 149 0
1 214 -206 0
1 213 201 0
1 213 -203 0
1 215 202 0
1 215 -201 0
1 -215 203 0
1 -212 -196 0
1 212 -129 0
1 -196 212 0
1 -196 203 0
1 196 -206 0
